p cnf 386 460
-14 -8 6 21 22 0
-14 -8 6 21 -22 0
-14 -8 6 -21 23 0
-14 -8 6 -21 -23 0
-17 -18 -13 24 25 0
-17 -18 -13 24 -25 0
-17 -18 -13 -24 26 0
-17 -18 -13 -24 -26 0
-4 5 -1 27 28 0
-4 5 -1 27 -28 0
-4 5 -1 -27 29 0
-4 5 -1 -27 -29 0
-7 13 -1 30 31 0
-7 13 -1 30 -31 0
-7 13 -1 -30 32 0
-7 13 -1 -30 -32 0
14 1 -2 33 34 0
14 1 -2 33 -34 0
14 1 -2 -33 35 0
14 1 -2 -33 -35 0
2 -20 -5 36 37 0
2 -20 -5 36 -37 0
2 -20 -5 -36 38 0
2 -20 -5 -36 -38 0
9 -15 -16 39 40 0
9 -15 -16 39 -40 0
9 -15 -16 -39 41 0
9 -15 -16 -39 -41 0
-19 -18 -15 42 43 0
-19 -18 -15 42 -43 0
-19 -18 -15 -42 44 0
-19 -18 -15 -42 -44 0
-14 -2 -9 45 46 0
-14 -2 -9 45 -46 0
-14 -2 -9 -45 47 0
-14 -2 -9 -45 -47 0
8 -9 16 48 49 0
8 -9 16 48 -49 0
8 -9 16 -48 50 0
8 -9 16 -48 -50 0
-7 18 -2 51 52 0
-7 18 -2 51 -52 0
-7 18 -2 -51 53 0
-7 18 -2 -51 -53 0
10 -13 15 54 55 0
10 -13 15 54 -55 0
10 -13 15 -54 56 0
10 -13 15 -54 -56 0
-17 -12 7 57 58 0
-17 -12 7 57 -58 0
-17 -12 7 -57 59 0
-17 -12 7 -57 -59 0
-7 -5 -4 60 61 0
-7 -5 -4 60 -61 0
-7 -5 -4 -60 62 0
-7 -5 -4 -60 -62 0
12 -6 8 63 64 0
12 -6 8 63 -64 0
12 -6 8 -63 65 0
12 -6 8 -63 -65 0
-9 -2 1 66 67 0
-9 -2 1 66 -67 0
-9 -2 1 -66 68 0
-9 -2 1 -66 -68 0
11 3 17 69 70 0
11 3 17 69 -70 0
11 3 17 -69 71 0
11 3 17 -69 -71 0
15 -5 -1 72 73 0
15 -5 -1 72 -73 0
15 -5 -1 -72 74 0
15 -5 -1 -72 -74 0
3 -4 -15 75 76 0
3 -4 -15 75 -76 0
3 -4 -15 -75 77 0
3 -4 -15 -75 -77 0
-6 -10 -20 78 79 0
-6 -10 -20 78 -79 0
-6 -10 -20 -78 80 0
-6 -10 -20 -78 -80 0
-17 -6 16 81 82 0
-17 -6 16 81 -82 0
-17 -6 16 -81 83 0
-17 -6 16 -81 -83 0
-3 -7 -11 84 85 0
-3 -7 -11 84 -85 0
-3 -7 -11 -84 86 0
-3 -7 -11 -84 -86 0
8 6 4 87 88 0
8 6 4 87 -88 0
8 6 4 -87 89 0
8 6 4 -87 -89 0
-20 -9 4 90 91 0
-20 -9 4 90 -91 0
-20 -9 4 -90 92 0
-20 -9 4 -90 -92 0
8 -20 12 93 94 0
8 -20 12 93 -94 0
8 -20 12 -93 95 0
8 -20 12 -93 -95 0
-1 9 14 96 97 0
-1 9 14 96 -97 0
-1 9 14 -96 98 0
-1 9 14 -96 -98 0
-4 8 16 99 100 0
-4 8 16 99 -100 0
-4 8 16 -99 101 0
-4 8 16 -99 -101 0
-14 15 -12 102 103 0
-14 15 -12 102 -103 0
-14 15 -12 -102 104 0
-14 15 -12 -102 -104 0
19 -3 6 105 106 0
19 -3 6 105 -106 0
19 -3 6 -105 107 0
19 -3 6 -105 -107 0
-4 -20 16 108 109 0
-4 -20 16 108 -109 0
-4 -20 16 -108 110 0
-4 -20 16 -108 -110 0
11 1 18 111 112 0
11 1 18 111 -112 0
11 1 18 -111 113 0
11 1 18 -111 -113 0
11 15 3 114 115 0
11 15 3 114 -115 0
11 15 3 -114 116 0
11 15 3 -114 -116 0
-19 -16 -1 117 118 0
-19 -16 -1 117 -118 0
-19 -16 -1 -117 119 0
-19 -16 -1 -117 -119 0
-15 -1 5 120 121 0
-15 -1 5 120 -121 0
-15 -1 5 -120 122 0
-15 -1 5 -120 -122 0
-20 -1 -4 123 124 0
-20 -1 -4 123 -124 0
-20 -1 -4 -123 125 0
-20 -1 -4 -123 -125 0
-19 3 17 126 127 0
-19 3 17 126 -127 0
-19 3 17 -126 128 0
-19 3 17 -126 -128 0
3 20 -18 129 130 0
3 20 -18 129 -130 0
3 20 -18 -129 131 0
3 20 -18 -129 -131 0
-14 -4 -15 132 133 0
-14 -4 -15 132 -133 0
-14 -4 -15 -132 134 0
-14 -4 -15 -132 -134 0
-15 -14 17 135 136 0
-15 -14 17 135 -136 0
-15 -14 17 -135 137 0
-15 -14 17 -135 -137 0
11 12 5 138 139 0
11 12 5 138 -139 0
11 12 5 -138 140 0
11 12 5 -138 -140 0
6 -5 18 141 142 0
6 -5 18 141 -142 0
6 -5 18 -141 143 0
6 -5 18 -141 -143 0
5 -13 -18 144 145 0
5 -13 -18 144 -145 0
5 -13 -18 -144 146 0
5 -13 -18 -144 -146 0
-4 -20 10 147 148 0
-4 -20 10 147 -148 0
-4 -20 10 -147 149 0
-4 -20 10 -147 -149 0
10 15 7 150 151 0
10 15 7 150 -151 0
10 15 7 -150 152 0
10 15 7 -150 -152 0
-17 -13 3 153 154 0
-17 -13 3 153 -154 0
-17 -13 3 -153 155 0
-17 -13 3 -153 -155 0
3 -10 16 156 157 0
3 -10 16 156 -157 0
3 -10 16 -156 158 0
3 -10 16 -156 -158 0
8 4 5 159 160 0
8 4 5 159 -160 0
8 4 5 -159 161 0
8 4 5 -159 -161 0
-12 -4 14 162 163 0
-12 -4 14 162 -163 0
-12 -4 14 -162 164 0
-12 -4 14 -162 -164 0
20 -4 13 165 166 0
20 -4 13 165 -166 0
20 -4 13 -165 167 0
20 -4 13 -165 -167 0
-19 3 -8 168 169 0
-19 3 -8 168 -169 0
-19 3 -8 -168 170 0
-19 3 -8 -168 -170 0
-2 -20 -7 171 172 0
-2 -20 -7 171 -172 0
-2 -20 -7 -171 173 0
-2 -20 -7 -171 -173 0
19 17 -2 174 175 0
19 17 -2 174 -175 0
19 17 -2 -174 176 0
19 17 -2 -174 -176 0
7 -6 -20 177 178 0
7 -6 -20 177 -178 0
7 -6 -20 -177 179 0
7 -6 -20 -177 -179 0
7 6 16 180 181 0
7 6 16 180 -181 0
7 6 16 -180 182 0
7 6 16 -180 -182 0
-18 -19 -13 183 184 0
-18 -19 -13 183 -184 0
-18 -19 -13 -183 185 0
-18 -19 -13 -183 -185 0
11 -13 -10 186 187 0
11 -13 -10 186 -187 0
11 -13 -10 -186 188 0
11 -13 -10 -186 -188 0
-10 -14 3 189 190 0
-10 -14 3 189 -190 0
-10 -14 3 -189 191 0
-10 -14 3 -189 -191 0
16 3 -9 192 193 0
16 3 -9 192 -193 0
16 3 -9 -192 194 0
16 3 -9 -192 -194 0
4 8 -7 195 196 0
4 8 -7 195 -196 0
4 8 -7 -195 197 0
4 8 -7 -195 -197 0
-3 19 -18 198 199 0
-3 19 -18 198 -199 0
-3 19 -18 -198 200 0
-3 19 -18 -198 -200 0
-3 17 -2 201 202 0
-3 17 -2 201 -202 0
-3 17 -2 -201 203 0
-3 17 -2 -201 -203 0
16 -3 -14 204 205 0
16 -3 -14 204 -205 0
16 -3 -14 -204 206 0
16 -3 -14 -204 -206 0
-7 -14 6 207 208 0
-7 -14 6 207 -208 0
-7 -14 6 -207 209 0
-7 -14 6 -207 -209 0
19 3 4 210 211 0
19 3 4 210 -211 0
19 3 4 -210 212 0
19 3 4 -210 -212 0
4 10 -3 213 214 0
4 10 -3 213 -214 0
4 10 -3 -213 215 0
4 10 -3 -213 -215 0
-12 -6 -9 216 217 0
-12 -6 -9 216 -217 0
-12 -6 -9 -216 218 0
-12 -6 -9 -216 -218 0
8 -14 -18 219 220 0
8 -14 -18 219 -220 0
8 -14 -18 -219 221 0
8 -14 -18 -219 -221 0
18 -4 9 222 223 0
18 -4 9 222 -223 0
18 -4 9 -222 224 0
18 -4 9 -222 -224 0
4 18 -7 225 226 0
4 18 -7 225 -226 0
4 18 -7 -225 227 0
4 18 -7 -225 -227 0
-11 6 3 228 229 0
-11 6 3 228 -229 0
-11 6 3 -228 230 0
-11 6 3 -228 -230 0
-6 18 11 231 232 0
-6 18 11 231 -232 0
-6 18 11 -231 233 0
-6 18 11 -231 -233 0
10 -18 -1 234 235 0
10 -18 -1 234 -235 0
10 -18 -1 -234 236 0
10 -18 -1 -234 -236 0
-2 17 -11 237 238 0
-2 17 -11 237 -238 0
-2 17 -11 -237 239 0
-2 17 -11 -237 -239 0
3 -18 -1 240 241 0
3 -18 -1 240 -241 0
3 -18 -1 -240 242 0
3 -18 -1 -240 -242 0
-20 -6 16 243 244 0
-20 -6 16 243 -244 0
-20 -6 16 -243 245 0
-20 -6 16 -243 -245 0
-20 -9 -11 246 247 0
-20 -9 -11 246 -247 0
-20 -9 -11 -246 248 0
-20 -9 -11 -246 -248 0
4 -16 -19 249 250 0
4 -16 -19 249 -250 0
4 -16 -19 -249 251 0
4 -16 -19 -249 -251 0
12 10 -19 252 253 0
12 10 -19 252 -253 0
12 10 -19 -252 254 0
12 10 -19 -252 -254 0
-16 12 -18 255 256 0
-16 12 -18 255 -256 0
-16 12 -18 -255 257 0
-16 12 -18 -255 -257 0
9 -20 -3 258 259 0
9 -20 -3 258 -259 0
9 -20 -3 -258 260 0
9 -20 -3 -258 -260 0
-5 13 -2 261 262 0
-5 13 -2 261 -262 0
-5 13 -2 -261 263 0
-5 13 -2 -261 -263 0
-13 -10 15 264 265 0
-13 -10 15 264 -265 0
-13 -10 15 -264 266 0
-13 -10 15 -264 -266 0
9 -10 19 267 268 0
9 -10 19 267 -268 0
9 -10 19 -267 269 0
9 -10 19 -267 -269 0
7 -19 4 270 271 0
7 -19 4 270 -271 0
7 -19 4 -270 272 0
7 -19 4 -270 -272 0
-11 -19 -3 273 274 0
-11 -19 -3 273 -274 0
-11 -19 -3 -273 275 0
-11 -19 -3 -273 -275 0
-19 4 -18 276 277 0
-19 4 -18 276 -277 0
-19 4 -18 -276 278 0
-19 4 -18 -276 -278 0
-6 -19 -12 279 280 0
-6 -19 -12 279 -280 0
-6 -19 -12 -279 281 0
-6 -19 -12 -279 -281 0
-5 -8 19 282 283 0
-5 -8 19 282 -283 0
-5 -8 19 -282 284 0
-5 -8 19 -282 -284 0
19 5 2 285 286 0
19 5 2 285 -286 0
19 5 2 -285 287 0
19 5 2 -285 -287 0
-18 -1 6 288 289 0
-18 -1 6 288 -289 0
-18 -1 6 -288 290 0
-18 -1 6 -288 -290 0
12 16 -19 291 292 0
12 16 -19 291 -292 0
12 16 -19 -291 293 0
12 16 -19 -291 -293 0
294 295 297 301 309 0
294 295 297 301 -309 0
294 295 297 -301 310 0
294 295 297 -301 -310 0
294 295 -297 302 311 0
294 295 -297 302 -311 0
294 295 -297 -302 312 0
294 295 -297 -302 -312 0
294 -295 298 303 313 0
294 -295 298 303 -313 0
294 -295 298 -303 314 0
294 -295 298 -303 -314 0
294 -295 -298 304 315 0
294 -295 -298 304 -315 0
294 -295 -298 -304 316 0
294 -295 -298 -304 -316 0
-294 296 299 305 317 0
-294 296 299 305 -317 0
-294 296 299 -305 318 0
-294 296 299 -305 -318 0
-294 296 -299 306 319 0
-294 296 -299 306 -319 0
-294 296 -299 -306 320 0
-294 296 -299 -306 -320 0
-294 -296 300 307 321 0
-294 -296 300 307 -321 0
-294 -296 300 -307 322 0
-294 -296 300 -307 -322 0
-294 -296 -300 308 323 0
-294 -296 -300 308 -323 0
-294 -296 -300 -308 324 0
-294 -296 -300 -308 -324 0
325 326 328 332 340 0
325 326 328 332 -340 0
325 326 328 -332 341 0
325 326 328 -332 -341 0
325 326 -328 333 342 0
325 326 -328 333 -342 0
325 326 -328 -333 343 0
325 326 -328 -333 -343 0
325 -326 329 334 344 0
325 -326 329 334 -344 0
325 -326 329 -334 345 0
325 -326 329 -334 -345 0
325 -326 -329 335 346 0
325 -326 -329 335 -346 0
325 -326 -329 -335 347 0
325 -326 -329 -335 -347 0
-325 327 330 336 348 0
-325 327 330 336 -348 0
-325 327 330 -336 349 0
-325 327 330 -336 -349 0
-325 327 -330 337 350 0
-325 327 -330 337 -350 0
-325 327 -330 -337 351 0
-325 327 -330 -337 -351 0
-325 -327 331 338 352 0
-325 -327 331 338 -352 0
-325 -327 331 -338 353 0
-325 -327 331 -338 -353 0
-325 -327 -331 339 354 0
-325 -327 -331 339 -354 0
-325 -327 -331 -339 355 0
-325 -327 -331 -339 -355 0
356 357 359 363 371 0
356 357 359 363 -371 0
356 357 359 -363 372 0
356 357 359 -363 -372 0
356 357 -359 364 373 0
356 357 -359 364 -373 0
356 357 -359 -364 374 0
356 357 -359 -364 -374 0
356 -357 360 365 375 0
356 -357 360 365 -375 0
356 -357 360 -365 376 0
356 -357 360 -365 -376 0
356 -357 -360 366 377 0
356 -357 -360 366 -377 0
356 -357 -360 -366 378 0
356 -357 -360 -366 -378 0
-356 358 361 367 379 0
-356 358 361 367 -379 0
-356 358 361 -367 380 0
-356 358 361 -367 -380 0
-356 358 -361 368 381 0
-356 358 -361 368 -381 0
-356 358 -361 -368 382 0
-356 358 -361 -368 -382 0
-356 -358 362 369 383 0
-356 -358 362 369 -383 0
-356 -358 362 -369 384 0
-356 -358 362 -369 -384 0
-356 -358 -362 370 385 0
-356 -358 -362 370 -385 0
-356 -358 -362 -370 386 0
-356 -358 -362 -370 -386 0

